NAME : rbg443.632.tour
COMMENT : Length = 632
COMMENT : Found by LKH [Keld Helsgaun] Sat May 25 06:41:59 2013
TYPE : TOUR
DIMENSION : 89
TOUR_SECTION
1
270
84
94
415
163
95
152
86
430
66
147
161
85
56
361
274
368
245
331
105
181
19
434
429
242
395
21
101
15
83
398
356
168
62
186
417
279
46
205
75
212
183
182
32
143
98
377
77
160
365
82
343
284
259
407
275
374
344
392
50
81
301
61
267
134
220
42
88
428
381
8
128
243
263
187
193
348
265
255
31
400
321
76
69
293
177
190
87
-1
EOF
